name="p11";
nr_vertices=18;
nr_edges=48;
neighborhoods=[{3,5,7,9,10},{2,4,6,8,11},{1,4,6,8,13},{0,5,7,9,12},{1,2,6,8,15},{0,3,7,9,14},{1,2,4,8,17},{0,3,5,9,16},{1,2,4,6,10,12,14,16},{0,3,5,7,11,13,15,17},{0,8,12,14,16},{1,9,13,15,17},{3,8,10,14,16},{2,9,11,15,17},{5,8,10,12,16},{4,9,11,13,17},{7,8,10,12,14},{6,9,11,13,15}];
weights=[1150,1150,900,900,650,650,400,400,280,280,80,80,60,60,40,40,30,30];
